c File: data_files/evolved_graphs/g6154.col
c
c Auto generated graph
c
p edge 100 310
e 1 38
e 1 41
e 1 62
e 1 67
e 1 71
e 1 90
e 1 99
e 2 30
e 2 36
e 2 59
e 2 66
e 2 100
e 3 6
e 3 25
e 3 36
e 3 39
e 3 46
e 3 73
e 3 91
e 3 97
e 4 10
e 4 15
e 4 45
e 4 53
e 4 56
e 4 64
e 5 11
e 5 29
e 5 81
e 5 82
e 5 91
e 5 96
e 6 22
e 6 41
e 6 50
e 6 88
e 6 89
e 6 91
e 7 27
e 7 30
e 7 34
e 7 50
e 7 68
e 8 60
e 8 78
e 8 79
e 8 94
e 9 30
e 9 43
e 9 46
e 9 60
e 9 92
e 10 40
e 10 89
e 10 92
e 10 95
e 11 37
e 11 44
e 11 46
e 11 80
e 11 88
e 11 92
e 12 50
e 12 74
e 12 77
e 12 85
e 12 93
e 12 97
e 13 28
e 13 32
e 13 37
e 13 63
e 13 91
e 14 27
e 14 33
e 14 47
e 14 57
e 14 65
e 14 73
e 14 90
e 14 93
e 15 37
e 15 69
e 15 79
e 15 88
e 15 93
e 16 25
e 16 33
e 16 35
e 16 64
e 16 72
e 16 86
e 16 94
e 17 32
e 17 55
e 17 63
e 17 84
e 17 99
e 17 100
e 18 29
e 18 45
e 18 50
e 18 61
e 18 81
e 18 100
e 19 26
e 19 48
e 19 58
e 19 89
e 19 99
e 20 25
e 20 27
e 20 28
e 20 31
e 20 66
e 20 71
e 20 75
e 20 97
e 21 24
e 21 33
e 21 40
e 21 49
e 21 54
e 21 67
e 22 31
e 22 43
e 22 47
e 22 55
e 22 61
e 22 81
e 23 25
e 23 32
e 23 42
e 23 47
e 23 66
e 24 25
e 24 52
e 24 65
e 24 94
e 24 98
e 25 59
e 25 98
e 26 29
e 26 36
e 26 53
e 26 63
e 26 71
e 26 98
e 27 59
e 27 63
e 27 70
e 28 58
e 28 65
e 28 68
e 29 41
e 29 76
e 29 79
e 30 67
e 30 92
e 30 97
e 30 98
e 31 33
e 31 50
e 32 34
e 32 45
e 32 57
e 32 94
e 33 50
e 33 51
e 34 48
e 34 51
e 34 64
e 35 51
e 35 61
e 35 66
e 36 45
e 36 66
e 36 67
e 36 95
e 37 41
e 37 46
e 38 44
e 38 45
e 38 46
e 38 59
e 38 65
e 39 51
e 39 62
e 39 83
e 39 85
e 39 94
e 40 80
e 40 81
e 40 83
e 40 90
e 41 57
e 41 68
e 41 87
e 42 53
e 42 68
e 42 70
e 42 73
e 42 86
e 42 97
e 43 48
e 43 56
e 43 68
e 43 77
e 43 84
e 43 94
e 44 61
e 44 80
e 44 98
e 45 55
e 46 57
e 47 54
e 47 61
e 47 76
e 48 54
e 48 62
e 48 66
e 49 64
e 49 69
e 49 78
e 49 80
e 49 96
e 50 99
e 51 59
e 51 60
e 51 75
e 52 63
e 52 71
e 52 72
e 52 80
e 52 84
e 52 87
e 53 67
e 53 72
e 53 73
e 54 76
e 54 83
e 55 78
e 55 85
e 55 92
e 56 75
e 56 76
e 56 80
e 56 94
e 56 97
e 57 84
e 57 85
e 57 89
e 57 98
e 58 81
e 58 87
e 58 99
e 59 69
e 59 82
e 59 85
e 60 74
e 60 82
e 60 88
e 62 70
e 62 74
e 62 78
e 62 86
e 63 86
e 64 85
e 64 86
e 64 100
e 65 83
e 65 88
e 65 97
e 66 70
e 67 72
e 67 75
e 68 89
e 69 89
e 69 93
e 70 79
e 70 81
e 70 91
e 70 92
e 71 73
e 71 76
e 71 89
e 72 84
e 73 76
e 73 100
e 74 98
e 75 78
e 75 79
e 77 81
e 77 83
e 78 83
e 78 95
e 79 84
e 79 96
e 80 90
e 80 96
e 81 82
e 82 85
e 82 97
e 84 95
e 85 94
e 86 94
e 87 93
e 88 95
e 91 98
e 92 93
